c Our program for 11 PGM to CNF Encoding 1
c 1 lambda(b1)    2 lambda(b2)
c 3 theta(b1)     4 theta(b2)
c 5 lambda(e1)    6 lambda(e2)    7 lambda(e3)
c 8 theta(e1)     9 theta(e2)     10 theta(e3)
c 11 lambda(a1)   12 lambda(a2)
c 13 theta(a1|b1,e1)    14 theta(a1|b1,e2)    15 theta(a1|b1,e3)
c 16 theta(a1|b2,e1)    17 theta(a1|b2,e2)    18 theta(a1|b2,e3)
c 19 theta(a2|b1,e1)    20 theta(a2|b1,e2)    21 theta(a2|b1,e3)
c 22 theta(a2|b2,e1)    23 theta(a2|b2,e2)    24 theta(a2|b2,e3)
c 25 lambda(j1)    26 lambda(j2)
c 27 theta(j1|a1)    28 theta(j1|a2)
c 29 theta(j2|a1)    30 theta(j2|a2)
c 31 lambda(m1)    32 lambda(m2)
c 33 theta(m1|a1)    34 theta(m1|a2)
c 35 theta(m2|a1)    36 theta(m2|a2)
c weights 1 1 1 1 0.7 1 0.3 1 1 1 1 1 1 1 0.01 1 0.19 1 0.80 1 1 1 1 1 0.90 1 0.85 1 0.80 1 0.30 1 0.10 1 0 1 0.10 1 0.15 1 0.20 1 0.70 1 0.90 1 1 1 1 0 0 1 0.80 1 0.10 1 0.20 1 0.90 1 1 0 0 1 0.80 1 0.10 1 0.20 1 0.90 1
p cnf 36 94
1 2 0
-1 -2 0
-1 3 0
1 -3 0
-2 4 0
2 -4 0
5 6 7 0
-5 -6 0
-5 -7 0
-6 -7 0
-5 8 0
5 -8 0
-6 9 0
6 -9 0
-7 10 0
7 -10 0
11 12 0
-11 -12 0
-11 -1 -5 13 0
11 -13 0
1 -13 0
5 -13 0
-11 -1 -6 14 0
11 -14 0
1 -14 0
6 -14 0
-11 -1 -7 15 0
11 -15 0
1 -15 0
7 -15 0
-11 -2 -5 16 0
11 -16 0
2 -16 0
5 -16 0
-11 -2 -6 17 0
11 -17 0
2 -17 0
6 -17 0
-11 -2 -7 18 0
11 -18 0
2 -18 0
7 -18 0
-12 -1 -5 19 0
12 -19 0
1 -19 0
5 -19 0
-12 -1 -6 20 0
12 -20 0
1 -20 0
6 -20 0
-12 -1 -7 21 0
12 -21 0
1 -21 0
7 -21 0
-12 -2 -5 22 0
12 -22 0
2 -22 0
5 -22 0
-12 -2 -6 23 0
12 -23 0
2 -23 0
6 -23 0
-12 -2 -7 24 0
12 -24 0
2 -24 0
7 -24 0
25 26 0
-25 -26 0
-25 -11 27 0
25 -27 0
11 -27 0
-25 -12 28 0
25 -28 0
12 -28 0
-26 -11 29 0
26 -29 0
11 -29 0
-26 -12 30 0
26 -30 0
12 -30 0
31 32 0
-31 -32 0
-31 -11 33 0
31 -33 0
11 -33 0
-31 -12 34 0
31 -34 0
12 -34 0
-32 -11 35 0
32 -35 0
11 -35 0
-32 -12 36 0
32 -36 0
12 -36 0
